
Gurobi 9.0.2 (win64) logging started Sun Dec 27 05:55:51 2020

Changed value of parameter logfile to result\SunCable-20201227T0415\scenario_2030_p0_cab0.log
   Prev:   Default: 
Gurobi Optimizer version 9.0.2 build v9.0.2rc0 (win64)
Optimize a model with 1243974 rows, 762167 columns and 3491689 nonzeros
Model fingerprint: 0xade13cbf
Coefficient statistics:
  Matrix range     [1e-07, 3e+05]
  Objective range  [1e+00, 1e+00]
  Bounds range     [0e+00, 0e+00]
  RHS range        [2e-05, 3e+08]
Warning: Model contains large matrix coefficient range
         Consider reformulating model or setting NumericFocus parameter
         to avoid numerical issues.

Concurrent LP optimizer: primal simplex, dual simplex, and barrier
Showing barrier log only...

Presolve removed 1077757 rows and 595936 columns
Presolve time: 2.65s
Presolved: 166217 rows, 280097 columns, 634800 nonzeros

Ordering time: 0.07s

Barrier statistics:
 Dense cols : 4
 AA' NZ     : 5.743e+05
 Factor NZ  : 2.973e+06 (roughly 200 MBytes of memory)
 Factor Ops : 6.580e+07 (less than 1 second per iteration)
 Threads    : 30

                  Objective                Residual
Iter       Primal          Dual         Primal    Dual     Compl     Time
   0  -2.03238394e+16 -1.07293657e+15  5.93e+06 2.66e+04  2.44e+12     3s
   1  -3.48404540e+15 -1.08556284e+15  1.01e+06 4.50e+06  5.67e+11     3s
   2  -1.22121779e+15 -1.02025242e+15  3.55e+05 1.27e+06  1.92e+11     4s
   3  -2.69549772e+14 -8.45434306e+14  7.90e+04 1.78e+05  4.08e+10     4s
   4  -8.26154244e+13 -5.48665013e+14  2.30e+04 5.37e+04  1.24e+10     4s
   5  -2.84000053e+13 -3.89260414e+14  7.50e+03 2.82e+04  4.86e+09     4s
   6  -1.09351569e+13 -2.72348248e+14  3.05e+03 1.41e+04  2.27e+09     5s
   7  -3.50334594e+12 -1.24110305e+14  1.03e+03 2.03e+03  6.03e+08     5s
   8   1.39138520e+11 -3.55557040e+13  2.20e+01 1.33e+02  7.37e+07     5s
   9   1.88720455e+11 -1.28399865e+12  5.33e-02 4.00e+00  2.83e+06     5s
  10   1.07014417e+11 -5.91845086e+11  1.87e-02 1.57e+00  1.31e+06     5s
  11   4.26660165e+10 -2.46038463e+11  3.96e-03 4.26e-01  5.27e+05     6s
  12   1.54049631e+10 -7.74729230e+10  8.61e-04 2.98e-08  1.67e+05     6s
  13   1.12046936e+10 -2.44203303e+10  5.02e-04 2.24e-08  6.39e+04     6s
  14   7.99389162e+09 -9.91499410e+09  2.09e-04 1.49e-08  3.20e+04     7s
  15   6.59489333e+09 -3.60598521e+08  1.06e-04 1.12e-08  1.24e+04     7s
  16   5.90792001e+09  1.84414582e+09  6.08e-05 7.45e-09  7.26e+03     7s
  17   5.45647630e+09  3.15955590e+09  3.09e-05 5.59e-09  4.10e+03     7s
  18   5.24665319e+09  4.12372120e+09  1.68e-05 3.73e-09  2.01e+03     7s
  19   5.14021867e+09  4.40461277e+09  1.01e-05 2.79e-09  1.31e+03     8s
  20   5.11325178e+09  4.71634590e+09  8.40e-06 2.79e-09  7.09e+02     8s
  21   5.09889119e+09  4.74814651e+09  7.35e-06 2.79e-09  6.26e+02     8s
  22   5.07581928e+09  4.83119207e+09  5.65e-06 1.86e-09  4.37e+02     8s
  23   5.05675691e+09  4.88466053e+09  4.25e-06 1.86e-09  3.07e+02     9s
  24   5.03902895e+09  4.90941782e+09  3.04e-06 2.79e-09  2.31e+02     9s
  25   5.02577374e+09  4.93487155e+09  2.08e-06 1.86e-09  1.62e+02     9s
  26   5.01749312e+09  4.95197311e+09  1.47e-06 1.86e-09  1.17e+02    10s
  27   5.01312901e+09  4.96625433e+09  1.10e-06 1.86e-09  8.37e+01    10s
  28   5.00853079e+09  4.97743609e+09  7.04e-07 1.86e-09  5.55e+01    10s
  29   5.00521104e+09  4.98593996e+09  4.19e-07 1.86e-09  3.44e+01    11s
  30   5.00257512e+09  4.99101616e+09  1.95e-07 1.86e-09  2.06e+01    11s
  31   5.00131807e+09  4.99565310e+09  8.96e-08 1.86e-09  1.01e+01    11s
  32   5.00087898e+09  4.99643835e+09  5.33e-08 1.86e-09  7.93e+00    11s
  33   5.00066781e+09  4.99845911e+09  4.46e-08 1.86e-09  3.94e+00    12s
  34   5.00046298e+09  4.99926629e+09  3.13e-08 1.86e-09  2.14e+00    12s
  35   5.00030094e+09  4.99957283e+09  3.47e-08 1.86e-09  1.30e+00    12s
  36   5.00024436e+09  4.99986563e+09  2.82e-08 1.86e-09  6.76e-01    12s
  37   5.00022558e+09  5.00003312e+09  1.57e-07 1.86e-09  3.44e-01    12s
  38   5.00022394e+09  5.00008236e+09  9.93e-08 1.86e-09  2.53e-01    13s
  39   5.00022259e+09  5.00021451e+09  2.27e-07 2.79e-09  1.44e-02    13s
  40   5.00022135e+09  5.00022113e+09  3.18e-08 2.79e-09  3.85e-04    13s
  41   5.00022134e+09  5.00022134e+09  8.33e-07 5.11e-09  1.54e-08    13s
  42   5.00022134e+09  5.00022134e+09  1.02e-08 5.01e-09  3.00e-12    14s

Barrier solved model in 42 iterations and 13.52 seconds
Optimal objective 5.00022134e+09

Crossover log...

   19303 DPushes remaining with DInf 0.0000000e+00                14s
       0 DPushes remaining with DInf 0.0000000e+00                14s
Warning: Markowitz tolerance tightened to 0.25

   79159 PPushes remaining with PInf 0.0000000e+00                14s
   26395 PPushes remaining with PInf 0.0000000e+00                16s
       0 PPushes remaining with PInf 0.0000000e+00                19s

  Push phase complete: Pinf 0.0000000e+00, Dinf 4.5452901e-09     19s

Iteration    Objective       Primal Inf.    Dual Inf.      Time
   80776    5.0002213e+09   0.000000e+00   0.000000e+00     21s

Solved with barrier
Solved in 80776 iterations and 20.96 seconds
Optimal objective  5.000221344e+09
Warning: unscaled primal violation = 0.000867896 and residual = 0.000867896
